N = 5;
H = 5;
T = 2;

avail = array3d(1..N, 1..H, 1..T, [10, 8, 10, 3, 5, 4, 4, 4, 10, 5, 9, 7, 2, 10, 5, 1, 8, 6, 0, 2, 2, 6, 10, 8, 7, 0, 3, 4, 8, 7, 8, 2, 10, 1, 5, 0, 4, 5, 6, 9, 8, 2, 4, 9, 6, 6, 4, 4, 2, 1]);

r = array2d(1..H, 1..T, [1, 1, 1, 0, 0, 2, 3, 1, 0, 2]);
